n=10;
hearts=14;
clubs=43;
spades=83;
diamonds=26;
blocked=13;
m=array2d(1..n, 1..n,[
	5,_,5,_,_,_,_,_,1,_,
	5,_,_,_,_,5,_,2,_,_,
	_,_,5,_,2,2,_,_,3,_,
	_,_,_,_,_,_,5,_,_,5,
	_,_,5,4,_,2,_,_,5,_,
	_,5,2,_,2,_,_,_,_,_,
	_,_,_,_,_,_,_,_,_,_,
	_,5,4,_,_,_,_,2,_,_,
	_,_,_,_,_,_,5,3,_,_,
	_,_,_,_,_,_,5,_,_,_
]);
